% Generated FlatZinc statistics:
%%%mzn-stat: paths=0
%%%mzn-stat: flatBoolVars=80
%%%mzn-stat: flatIntVars=146
%%%mzn-stat: flatBoolConstraints=40
%%%mzn-stat: flatIntConstraints=209
%%%mzn-stat: evaluatedReifiedConstraints=22
%%%mzn-stat: evaluatedHalfReifiedConstraints=58
%%%mzn-stat: method="minimize"
%%%mzn-stat: flatTime=0.219946
%%%mzn-stat-end
successor = [2, 3, 4, 11, 6, 7, 8, 1, 5, 12, 10, 9];
predecessor = [8, 1, 2, 3, 9, 5, 6, 7, 12, 11, 4, 10];
vehicle = [1, 1, 1, 1, 1, 1, 1, 1, 1, 2, 1, 2];
load = [0, 15, 45, 55, 105, 90, 60, 50, 105, 0, 105, 0];
arrivalTime = [54, 54, 90, 91, 0, 0, 0, 0, 0, 0, 115, 0];
departureTime = [0, 0, 0, 0, 0, 0, 0, 0, 0, 0, 0, 0];
slack = [0, 0, 0, 0, 0, 0, 0, 6, 0, 0, 0, 0];
objective = 115;
start_load = 0;
% time elapsed: 0.32 s
----------
successor = [2, 3, 4, 11, 6, 7, 8, 1, 5, 12, 10, 9];
predecessor = [8, 1, 2, 3, 9, 5, 6, 7, 12, 11, 4, 10];
vehicle = [1, 1, 1, 1, 1, 1, 1, 1, 1, 2, 1, 2];
load = [0, 15, 45, 55, 105, 90, 60, 50, 105, 0, 105, 0];
arrivalTime = [54, 54, 90, 91, 1, 1, 1, 1, 1, 0, 115, 0];
departureTime = [0, 0, 0, 0, 0, 0, 0, 0, 0, 0, 0, 0];
slack = [0, 0, 0, 0, 0, 0, 0, 5, 0, 0, 0, 0];
objective = 114;
start_load = 0;
% time elapsed: 15.43 s
----------
successor = [2, 3, 4, 11, 6, 7, 8, 1, 5, 12, 10, 9];
predecessor = [8, 1, 2, 3, 9, 5, 6, 7, 12, 11, 4, 10];
vehicle = [1, 1, 1, 1, 1, 1, 1, 1, 1, 2, 1, 2];
load = [0, 15, 45, 55, 105, 90, 60, 50, 105, 0, 105, 0];
arrivalTime = [54, 54, 90, 91, 2, 2, 2, 2, 2, 0, 115, 0];
departureTime = [0, 0, 0, 0, 0, 0, 0, 0, 0, 0, 0, 0];
slack = [0, 0, 0, 0, 0, 0, 0, 4, 0, 0, 0, 0];
objective = 113;
start_load = 0;
% time elapsed: 17.40 s
----------
successor = [2, 3, 4, 11, 6, 7, 8, 1, 5, 12, 10, 9];
predecessor = [8, 1, 2, 3, 9, 5, 6, 7, 12, 11, 4, 10];
vehicle = [1, 1, 1, 1, 1, 1, 1, 1, 1, 2, 1, 2];
load = [0, 15, 45, 55, 105, 90, 60, 50, 105, 0, 105, 0];
arrivalTime = [54, 54, 90, 91, 3, 3, 3, 3, 3, 0, 115, 0];
departureTime = [0, 0, 0, 0, 0, 0, 0, 0, 0, 0, 0, 0];
slack = [0, 0, 0, 0, 0, 0, 0, 3, 0, 0, 0, 0];
objective = 112;
start_load = 0;
% time elapsed: 19.20 s
----------
successor = [2, 3, 4, 11, 6, 7, 8, 1, 5, 12, 10, 9];
predecessor = [8, 1, 2, 3, 9, 5, 6, 7, 12, 11, 4, 10];
vehicle = [1, 1, 1, 1, 1, 1, 1, 1, 1, 2, 1, 2];
load = [0, 15, 45, 55, 105, 90, 60, 50, 105, 0, 105, 0];
arrivalTime = [54, 54, 90, 91, 4, 4, 4, 4, 4, 0, 115, 0];
departureTime = [0, 0, 0, 0, 0, 0, 0, 0, 0, 0, 0, 0];
slack = [0, 0, 0, 0, 0, 0, 0, 2, 0, 0, 0, 0];
objective = 111;
start_load = 0;
% time elapsed: 21.10 s
----------
successor = [2, 3, 4, 11, 6, 7, 8, 1, 5, 12, 10, 9];
predecessor = [8, 1, 2, 3, 9, 5, 6, 7, 12, 11, 4, 10];
vehicle = [1, 1, 1, 1, 1, 1, 1, 1, 1, 2, 1, 2];
load = [0, 15, 45, 55, 105, 90, 60, 50, 105, 0, 105, 0];
arrivalTime = [54, 54, 90, 91, 5, 5, 5, 5, 5, 0, 115, 0];
departureTime = [0, 0, 0, 0, 0, 0, 0, 0, 0, 0, 0, 0];
slack = [0, 0, 0, 0, 0, 0, 0, 1, 0, 0, 0, 0];
objective = 110;
start_load = 0;
% time elapsed: 22.97 s
----------
successor = [2, 3, 4, 11, 6, 7, 8, 1, 5, 12, 10, 9];
predecessor = [8, 1, 2, 3, 9, 5, 6, 7, 12, 11, 4, 10];
vehicle = [1, 1, 1, 1, 1, 1, 1, 1, 1, 2, 1, 2];
load = [0, 15, 45, 55, 105, 90, 60, 50, 105, 0, 105, 0];
arrivalTime = [54, 54, 90, 91, 6, 6, 6, 6, 6, 0, 115, 0];
departureTime = [0, 0, 0, 0, 0, 0, 0, 0, 0, 0, 0, 0];
slack = [0, 0, 0, 0, 0, 0, 0, 0, 0, 0, 0, 0];
objective = 109;
start_load = 0;
% time elapsed: 24.77 s
----------
successor = [2, 11, 4, 1, 3, 7, 8, 5, 6, 12, 10, 9];
predecessor = [4, 1, 5, 3, 8, 9, 6, 7, 12, 11, 2, 10];
vehicle = [1, 1, 1, 1, 1, 1, 1, 1, 1, 2, 1, 2];
load = [60, 75, 0, 10, 15, 105, 75, 65, 105, 0, 105, 0];
arrivalTime = [83, 83, 54, 55, 28, 28, 28, 28, 28, 0, 136, 0];
departureTime = [0, 0, 0, 0, 0, 0, 0, 0, 0, 0, 0, 0];
slack = [0, 0, 0, 0, 1, 0, 0, 0, 0, 0, 0, 0];
objective = 108;
start_load = 0;
% time elapsed: 2073.45 s
----------
successor = [2, 11, 4, 1, 3, 7, 8, 5, 6, 12, 10, 9];
predecessor = [4, 1, 5, 3, 8, 9, 6, 7, 12, 11, 2, 10];
vehicle = [1, 1, 1, 1, 1, 1, 1, 1, 1, 2, 1, 2];
load = [60, 75, 0, 10, 15, 105, 75, 65, 105, 0, 105, 0];
arrivalTime = [83, 83, 54, 55, 29, 29, 29, 29, 29, 0, 136, 0];
departureTime = [0, 0, 0, 0, 0, 0, 0, 0, 0, 0, 0, 0];
slack = [0, 0, 0, 0, 0, 0, 0, 0, 0, 0, 0, 0];
objective = 107;
start_load = 0;
% time elapsed: 2075.05 s
----------
%%%mzn-stat: nSolutions=9
%%%mzn-stat-end
